PROBLEM NAME: eil51_n16
KNAPSACK DATA TYPE: uncorrelated
DIMENSION: 16
NUMBER OF ITEMS: 15
CAPACITY OF KNAPSACK: 8831
MIN SPEED: 0.1
MAX SPEED: 1
RENTING RATIO: 7.74
EDGE_WEIGHT_TYPE: CEIL_2D
NODE_COORD_SECTION	(INDEX, X, Y):
1	49	49
2	20	26
3	31	32
4	5	25
5	8	52
6	30	48
7	58	48
8	37	69
9	38	46
10	46	10
11	10	17
12	21	10
13	32	39
14	25	55
15	56	37
16	30	40
ITEMS SECTION	(INDEX, PROFIT, WEIGHT, ASSIGNED NODE NUMBER):
1	891	532	8
2	867	970	14
3	808	906	5
4	727	724	6
5	710	416	9
6	572	300	16
7	434	925	13
8	431	493	3
9	383	700	2
10	343	581	4
11	281	930	11
12	218	428	12
13	212	811	10
14	138	148	15
15	91	851	7
